17	4
20	17	18	15	
0	0	0	0	0	3	2	3	4	
4	4	10	10	0	3	6	8	12	
6	0	3	8	2	2	7	17	
1	1	0	0	5	1	5	
6	0	6	8	0	3	14	16	17	
225	0	10	9	9	2	9	10	
75	1	5	0	3	1	17	
175	0	0	0	1	2	17	17	
50	4	0	0	5	1	11	
200	8	0	0	0	3	13	17	17	
175	0	0	7	1	1	17	
175	10	0	0	7	1	17	
2	4	10	0	2	1	15	
8	8	0	3	0	3	17	17	17	
5	0	5	0	0	3	17	17	17	
4	0	8	0	0	2	17	17	
0	0	0	0	0	0	
